c FILE /home/rafael/Documents/HappySet/MIHS/inputs/happygen/output/graph_scale_free_k10_p0.3_v50_20241127_082513.txt
c SOURCE This is a scale-free graph formed for the happy graph colouring problem.
c DESCRIPTION It was generated using the problem generator of Rhyd Lewis
c
c GRAPH STATS
c Seed                             = 1722228321
c Number of Nodes                  = 50
c Number of colours k              = 10
c Number of pre-assignments        = 15
c Number of links per new node     = 5
c Density                          = 0.191837
c 
c The degrees of nodes 1 to 50, respectively, are as follows 
c [27, 21, 20, 18, 18, 17, 16, 15, 15, 14, 14, 13, 13, 13, 11, 10, 10, 9, 9, 9, 8, 8, 7, 7, 7, 7, 
c  7, 7, 6, 6, 6, 6, 6, 6, 6, 6, 6, 6, 5, 5, 5, 5, 5, 5, 5, 5, 5, 5, 5, 5] 
c  
p edge 50 235 10
e 1 2
e 1 3
e 1 4
e 1 5
e 1 6
e 1 8
e 1 9
e 1 10
e 1 11
e 1 12
e 1 15
e 1 18
e 1 20
e 1 21
e 1 25
e 1 26
e 1 28
e 1 30
e 1 31
e 1 33
e 1 35
e 1 36
e 1 38
e 1 39
e 1 46
e 1 47
e 1 49
e 2 3
e 2 4
e 2 5
e 2 6
e 2 10
e 2 11
e 2 12
e 2 13
e 2 14
e 2 15
e 2 16
e 2 22
e 2 23
e 2 28
e 2 29
e 2 30
e 2 31
e 2 37
e 2 41
e 2 47
e 3 4
e 3 5
e 3 6
e 3 7
e 3 8
e 3 10
e 3 14
e 3 16
e 3 19
e 3 21
e 3 23
e 3 26
e 3 34
e 3 43
e 3 45
e 3 48
e 3 49
e 3 50
e 4 5
e 4 6
e 4 9
e 4 13
e 4 16
e 4 20
e 4 23
e 4 25
e 4 26
e 4 28
e 4 34
e 4 36
e 4 41
e 4 43
e 4 50
e 5 6
e 5 8
e 5 10
e 5 12
e 5 16
e 5 20
e 5 21
e 5 23
e 5 29
e 5 31
e 5 34
e 5 39
e 5 44
e 5 45
e 6 7
e 6 9
e 6 10
e 6 11
e 6 12
e 6 13
e 6 16
e 6 23
e 6 31
e 6 38
e 6 40
e 6 41
e 7 10
e 7 12
e 7 16
e 7 18
e 7 19
e 7 21
e 7 24
e 7 31
e 7 35
e 7 38
e 7 39
e 7 40
e 7 48
e 7 49
e 8 9
e 8 11
e 8 13
e 8 14
e 8 15
e 8 17
e 8 24
e 8 30
e 8 32
e 8 37
e 8 44
e 8 47
e 9 10
e 9 19
e 9 24
e 9 25
e 9 27
e 9 29
e 9 30
e 9 33
e 9 42
e 9 43
e 9 44
e 10 12
e 10 18
e 10 19
e 10 24
e 10 32
e 10 39
e 10 48
e 11 12
e 11 16
e 11 17
e 11 18
e 11 27
e 11 29
e 11 32
e 11 40
e 11 45
e 11 46
e 12 13
e 12 19
e 12 22
e 12 25
e 12 28
e 12 50
e 13 16
e 13 17
e 13 21
e 13 33
e 13 34
e 13 36
e 13 39
e 13 42
e 14 17
e 14 24
e 14 27
e 14 29
e 14 30
e 14 32
e 14 40
e 14 44
e 14 46
e 14 50
e 15 16
e 15 17
e 15 18
e 15 20
e 15 27
e 15 33
e 15 35
e 15 36
e 16 18
e 17 23
e 17 26
e 17 41
e 17 47
e 17 49
e 18 20
e 18 36
e 18 37
e 19 26
e 19 29
e 19 35
e 19 43
e 20 33
e 20 40
e 20 45
e 20 48
e 21 22
e 21 41
e 21 47
e 22 25
e 22 26
e 22 38
e 22 42
e 22 50
e 23 37
e 24 25
e 24 35
e 25 34
e 26 45
e 27 34
e 27 37
e 27 48
e 28 36
e 28 38
e 28 42
e 30 44
e 31 32
e 32 42
e 33 43
e 35 46
e 37 49
e 38 46
n 6 3
n 8 2
n 18 8
n 21 1
n 27 9
n 30 2
n 31 3
n 34 9
n 35 10
n 36 8
n 39 7
n 43 4
n 44 2
n 45 5
n 50 6
